p cnf 656 2226
c p weight -261 1 0
c p weight 261 -1 0
c p weight 265 6.12323399573676603586882014729198302312846062338790031898128063403419218957424163818359375E-17 0
c p weight -265 1 0
c p weight 266 1 0
c p weight -266 1 0
c p weight -263 1 0
c p weight 263 -1 0
c p weight -267 1 0
c p weight 267 -1 0
c p weight -269 1 0
c p weight 269 -1 0
c p weight -272 1 0
c p weight 272 -1 0
c p weight -275 1 0
c p weight 275 -1 0
c p weight -278 1 0
c p weight 278 -1 0
c p weight -281 1 0
c p weight 281 -1 0
c p weight -284 1 0
c p weight 284 -1 0
c p weight -287 1 0
c p weight 287 -1 0
c p weight -290 1 0
c p weight 290 -1 0
c p weight -293 1 0
c p weight 293 -1 0
c p weight -296 1 0
c p weight 296 -1 0
c p weight -299 1 0
c p weight 299 -1 0
c p weight -302 1 0
c p weight 302 -1 0
c p weight -305 1 0
c p weight 305 -1 0
c p weight -308 1 0
c p weight 308 -1 0
c p weight -311 1 0
c p weight 311 -1 0
c p weight -314 1 0
c p weight 314 -1 0
c p weight -317 1 0
c p weight 317 -1 0
c p weight -320 1 0
c p weight 320 -1 0
c p weight -323 1 0
c p weight 323 -1 0
c p weight -326 1 0
c p weight 326 -1 0
c p weight -329 1 0
c p weight 329 -1 0
c p weight -332 1 0
c p weight 332 -1 0
c p weight -335 1 0
c p weight 335 -1 0
c p weight -338 1 0
c p weight 338 -1 0
c p weight -341 1 0
c p weight 341 -1 0
c p weight -344 1 0
c p weight 344 -1 0
c p weight -347 1 0
c p weight 347 -1 0
c p weight -350 1 0
c p weight 350 -1 0
c p weight -353 1 0
c p weight 353 -1 0
c p weight -356 1 0
c p weight 356 -1 0
c p weight -359 1 0
c p weight 359 -1 0
c p weight -362 1 0
c p weight 362 -1 0
c p weight -365 1 0
c p weight 365 -1 0
c p weight -368 1 0
c p weight 368 -1 0
c p weight -371 1 0
c p weight 371 -1 0
c p weight -374 1 0
c p weight 374 -1 0
c p weight -377 1 0
c p weight 377 -1 0
c p weight -380 1 0
c p weight 380 -1 0
c p weight -383 1 0
c p weight 383 -1 0
c p weight -386 1 0
c p weight 386 -1 0
c p weight -389 1 0
c p weight 389 -1 0
c p weight -392 1 0
c p weight 392 -1 0
c p weight -395 1 0
c p weight 395 -1 0
c p weight -398 1 0
c p weight 398 -1 0
c p weight -401 1 0
c p weight 401 -1 0
c p weight -404 1 0
c p weight 404 -1 0
c p weight -407 1 0
c p weight 407 -1 0
c p weight -410 1 0
c p weight 410 -1 0
c p weight -413 1 0
c p weight 413 -1 0
c p weight -416 1 0
c p weight 416 -1 0
c p weight -419 1 0
c p weight 419 -1 0
c p weight -422 1 0
c p weight 422 -1 0
c p weight -425 1 0
c p weight 425 -1 0
c p weight -428 1 0
c p weight 428 -1 0
c p weight -431 1 0
c p weight 431 -1 0
c p weight -434 1 0
c p weight 434 -1 0
c p weight -437 1 0
c p weight 437 -1 0
c p weight -440 1 0
c p weight 440 -1 0
c p weight -443 1 0
c p weight 443 -1 0
c p weight -446 1 0
c p weight 446 -1 0
c p weight -449 1 0
c p weight 449 -1 0
c p weight -452 1 0
c p weight 452 -1 0
c p weight -455 1 0
c p weight 455 -1 0
c p weight -458 1 0
c p weight 458 -1 0
c p weight -461 1 0
c p weight 461 -1 0
c p weight -464 1 0
c p weight 464 -1 0
c p weight -467 1 0
c p weight 467 -1 0
c p weight -470 1 0
c p weight 470 -1 0
c p weight -473 1 0
c p weight 473 -1 0
c p weight -476 1 0
c p weight 476 -1 0
c p weight -479 1 0
c p weight 479 -1 0
c p weight -482 1 0
c p weight 482 -1 0
c p weight -485 1 0
c p weight 485 -1 0
c p weight -488 1 0
c p weight 488 -1 0
c p weight -491 1 0
c p weight 491 -1 0
c p weight -494 1 0
c p weight 494 -1 0
c p weight -497 1 0
c p weight 497 -1 0
c p weight -500 1 0
c p weight 500 -1 0
c p weight -503 1 0
c p weight 503 -1 0
c p weight -506 1 0
c p weight 506 -1 0
c p weight -509 1 0
c p weight 509 -1 0
c p weight -512 1 0
c p weight 512 -1 0
c p weight -515 1 0
c p weight 515 -1 0
c p weight -518 1 0
c p weight 518 -1 0
c p weight -521 1 0
c p weight 521 -1 0
c p weight -524 1 0
c p weight 524 -1 0
c p weight -527 1 0
c p weight 527 -1 0
c p weight -530 1 0
c p weight 530 -1 0
c p weight -533 1 0
c p weight 533 -1 0
c p weight -536 1 0
c p weight 536 -1 0
c p weight -539 1 0
c p weight 539 -1 0
c p weight -542 1 0
c p weight 542 -1 0
c p weight -545 1 0
c p weight 545 -1 0
c p weight -548 1 0
c p weight 548 -1 0
c p weight -551 1 0
c p weight 551 -1 0
c p weight -554 1 0
c p weight 554 -1 0
c p weight -557 1 0
c p weight 557 -1 0
c p weight -560 1 0
c p weight 560 -1 0
c p weight -563 1 0
c p weight 563 -1 0
c p weight -566 1 0
c p weight 566 -1 0
c p weight -569 1 0
c p weight 569 -1 0
c p weight -572 1 0
c p weight 572 -1 0
c p weight -575 1 0
c p weight 575 -1 0
c p weight -578 1 0
c p weight 578 -1 0
c p weight -581 1 0
c p weight 581 -1 0
c p weight -584 1 0
c p weight 584 -1 0
c p weight -587 1 0
c p weight 587 -1 0
c p weight -590 1 0
c p weight 590 -1 0
c p weight -593 1 0
c p weight 593 -1 0
c p weight -596 1 0
c p weight 596 -1 0
c p weight -599 1 0
c p weight 599 -1 0
c p weight -602 1 0
c p weight 602 -1 0
c p weight -605 1 0
c p weight 605 -1 0
c p weight -608 1 0
c p weight 608 -1 0
c p weight -611 1 0
c p weight 611 -1 0
c p weight -614 1 0
c p weight 614 -1 0
c p weight -617 1 0
c p weight 617 -1 0
c p weight -620 1 0
c p weight 620 -1 0
c p weight -623 1 0
c p weight 623 -1 0
c p weight -626 1 0
c p weight 626 -1 0
c p weight -629 1 0
c p weight 629 -1 0
c p weight -632 1 0
c p weight 632 -1 0
c p weight -635 1 0
c p weight 635 -1 0
c p weight -638 1 0
c p weight 638 -1 0
c p weight -641 1 0
c p weight 641 -1 0
c p weight -644 1 0
c p weight 644 -1 0
c p weight -647 1 0
c p weight 647 -1 0
c p weight -650 1 0
c p weight 650 -1 0
c p weight -653 1 0
c p weight 653 -1 0
c p weight 656 0.5 0
c p weight -656 1 0
656 0
-259 0
-257 0
-255 0
-253 0
-251 0
-249 0
-247 0
-245 0
-243 0
-241 0
-239 0
-237 0
-235 0
-233 0
-231 0
-229 0
-227 0
-225 0
-223 0
-221 0
-219 0
-217 0
-215 0
-213 0
-211 0
-209 0
-207 0
-205 0
-203 0
-201 0
-199 0
-197 0
-195 0
-193 0
-191 0
-189 0
-187 0
-185 0
-183 0
-181 0
-179 0
-177 0
-175 0
-173 0
-171 0
-169 0
-167 0
-165 0
-163 0
-161 0
-159 0
-157 0
-155 0
-153 0
-151 0
-149 0
-147 0
-145 0
-143 0
-141 0
-139 0
-137 0
-135 0
-133 0
-131 0
-129 0
-127 0
-125 0
-123 0
-121 0
-119 0
-117 0
-115 0
-113 0
-111 0
-109 0
-107 0
-105 0
-103 0
-101 0
-99 0
-97 0
-95 0
-93 0
-91 0
-89 0
-87 0
-85 0
-83 0
-81 0
-79 0
-77 0
-75 0
-73 0
-71 0
-69 0
-67 0
-65 0
-63 0
-61 0
-59 0
-57 0
-55 0
-53 0
-51 0
-49 0
-47 0
-45 0
-43 0
-41 0
-39 0
-37 0
-35 0
-33 0
-31 0
-29 0
-27 0
-25 0
-23 0
-21 0
-19 0
-17 0
-15 0
-13 0
-11 0
-9 0
-7 0
-5 0
-3 0
-1 0
-261 259 0
-261 260 0
261 -259 -260 0
262 259 -260 0
262 -259 260 0
-262 259 260 0
-262 -259 -260 0
-263 264 0
-263 262 0
-263 -259 0
263 -264 259 -262 0
264 -259 262 0
-264 259 262 0
-265 262 0
264 -265 -259 0
-264 -265 259 0
264 265 259 -262 0
-264 265 -259 -262 0
-266 262 0
264 -266 259 0
-264 -266 -259 0
264 266 -259 -262 0
-264 266 259 -262 0
-267 264 0
-267 262 0
267 -264 -262 0
268 264 -262 0
268 -264 262 0
-268 264 262 0
-268 -264 -262 0
-269 264 0
-269 258 0
-269 257 -268 0
-269 -257 268 0
269 -264 257 268 -258 0
269 -264 -257 -268 -258 0
271 264 -257 0
271 -264 257 0
-271 264 257 0
-271 -264 -257 0
270 268 -258 0
270 -268 258 0
-270 268 258 0
-270 -268 -258 0
-272 271 0
-272 256 0
-272 255 -258 0
-272 -255 258 0
272 -271 255 258 -256 0
272 -271 -255 -258 -256 0
274 271 -255 0
274 -271 255 0
-274 271 255 0
-274 -271 -255 0
273 258 -256 0
273 -258 256 0
-273 258 256 0
-273 -258 -256 0
-275 274 0
-275 254 0
-275 253 -256 0
-275 -253 256 0
275 -274 253 256 -254 0
275 -274 -253 -256 -254 0
277 274 -253 0
277 -274 253 0
-277 274 253 0
-277 -274 -253 0
276 256 -254 0
276 -256 254 0
-276 256 254 0
-276 -256 -254 0
-278 277 0
-278 252 0
-278 251 -254 0
-278 -251 254 0
278 -277 251 254 -252 0
278 -277 -251 -254 -252 0
280 277 -251 0
280 -277 251 0
-280 277 251 0
-280 -277 -251 0
279 254 -252 0
279 -254 252 0
-279 254 252 0
-279 -254 -252 0
-281 280 0
-281 250 0
-281 249 -252 0
-281 -249 252 0
281 -280 249 252 -250 0
281 -280 -249 -252 -250 0
283 280 -249 0
283 -280 249 0
-283 280 249 0
-283 -280 -249 0
282 252 -250 0
282 -252 250 0
-282 252 250 0
-282 -252 -250 0
-284 283 0
-284 248 0
-284 247 -250 0
-284 -247 250 0
284 -283 247 250 -248 0
284 -283 -247 -250 -248 0
286 283 -247 0
286 -283 247 0
-286 283 247 0
-286 -283 -247 0
285 250 -248 0
285 -250 248 0
-285 250 248 0
-285 -250 -248 0
-287 286 0
-287 246 0
-287 245 -248 0
-287 -245 248 0
287 -286 245 248 -246 0
287 -286 -245 -248 -246 0
289 286 -245 0
289 -286 245 0
-289 286 245 0
-289 -286 -245 0
288 248 -246 0
288 -248 246 0
-288 248 246 0
-288 -248 -246 0
-290 289 0
-290 244 0
-290 243 -246 0
-290 -243 246 0
290 -289 243 246 -244 0
290 -289 -243 -246 -244 0
292 289 -243 0
292 -289 243 0
-292 289 243 0
-292 -289 -243 0
291 246 -244 0
291 -246 244 0
-291 246 244 0
-291 -246 -244 0
-293 292 0
-293 242 0
-293 241 -244 0
-293 -241 244 0
293 -292 241 244 -242 0
293 -292 -241 -244 -242 0
295 292 -241 0
295 -292 241 0
-295 292 241 0
-295 -292 -241 0
294 244 -242 0
294 -244 242 0
-294 244 242 0
-294 -244 -242 0
-296 295 0
-296 240 0
-296 239 -242 0
-296 -239 242 0
296 -295 239 242 -240 0
296 -295 -239 -242 -240 0
298 295 -239 0
298 -295 239 0
-298 295 239 0
-298 -295 -239 0
297 242 -240 0
297 -242 240 0
-297 242 240 0
-297 -242 -240 0
-299 298 0
-299 238 0
-299 237 -240 0
-299 -237 240 0
299 -298 237 240 -238 0
299 -298 -237 -240 -238 0
301 298 -237 0
301 -298 237 0
-301 298 237 0
-301 -298 -237 0
300 240 -238 0
300 -240 238 0
-300 240 238 0
-300 -240 -238 0
-302 301 0
-302 236 0
-302 235 -238 0
-302 -235 238 0
302 -301 235 238 -236 0
302 -301 -235 -238 -236 0
304 301 -235 0
304 -301 235 0
-304 301 235 0
-304 -301 -235 0
303 238 -236 0
303 -238 236 0
-303 238 236 0
-303 -238 -236 0
-305 304 0
-305 234 0
-305 233 -236 0
-305 -233 236 0
305 -304 233 236 -234 0
305 -304 -233 -236 -234 0
307 304 -233 0
307 -304 233 0
-307 304 233 0
-307 -304 -233 0
306 236 -234 0
306 -236 234 0
-306 236 234 0
-306 -236 -234 0
-308 307 0
-308 232 0
-308 231 -234 0
-308 -231 234 0
308 -307 231 234 -232 0
308 -307 -231 -234 -232 0
310 307 -231 0
310 -307 231 0
-310 307 231 0
-310 -307 -231 0
309 234 -232 0
309 -234 232 0
-309 234 232 0
-309 -234 -232 0
-311 310 0
-311 230 0
-311 229 -232 0
-311 -229 232 0
311 -310 229 232 -230 0
311 -310 -229 -232 -230 0
313 310 -229 0
313 -310 229 0
-313 310 229 0
-313 -310 -229 0
312 232 -230 0
312 -232 230 0
-312 232 230 0
-312 -232 -230 0
-314 313 0
-314 228 0
-314 227 -230 0
-314 -227 230 0
314 -313 227 230 -228 0
314 -313 -227 -230 -228 0
316 313 -227 0
316 -313 227 0
-316 313 227 0
-316 -313 -227 0
315 230 -228 0
315 -230 228 0
-315 230 228 0
-315 -230 -228 0
-317 316 0
-317 226 0
-317 225 -228 0
-317 -225 228 0
317 -316 225 228 -226 0
317 -316 -225 -228 -226 0
319 316 -225 0
319 -316 225 0
-319 316 225 0
-319 -316 -225 0
318 228 -226 0
318 -228 226 0
-318 228 226 0
-318 -228 -226 0
-320 319 0
-320 224 0
-320 223 -226 0
-320 -223 226 0
320 -319 223 226 -224 0
320 -319 -223 -226 -224 0
322 319 -223 0
322 -319 223 0
-322 319 223 0
-322 -319 -223 0
321 226 -224 0
321 -226 224 0
-321 226 224 0
-321 -226 -224 0
-323 322 0
-323 222 0
-323 221 -224 0
-323 -221 224 0
323 -322 221 224 -222 0
323 -322 -221 -224 -222 0
325 322 -221 0
325 -322 221 0
-325 322 221 0
-325 -322 -221 0
324 224 -222 0
324 -224 222 0
-324 224 222 0
-324 -224 -222 0
-326 325 0
-326 220 0
-326 219 -222 0
-326 -219 222 0
326 -325 219 222 -220 0
326 -325 -219 -222 -220 0
328 325 -219 0
328 -325 219 0
-328 325 219 0
-328 -325 -219 0
327 222 -220 0
327 -222 220 0
-327 222 220 0
-327 -222 -220 0
-329 328 0
-329 218 0
-329 217 -220 0
-329 -217 220 0
329 -328 217 220 -218 0
329 -328 -217 -220 -218 0
331 328 -217 0
331 -328 217 0
-331 328 217 0
-331 -328 -217 0
330 220 -218 0
330 -220 218 0
-330 220 218 0
-330 -220 -218 0
-332 331 0
-332 216 0
-332 215 -218 0
-332 -215 218 0
332 -331 215 218 -216 0
332 -331 -215 -218 -216 0
334 331 -215 0
334 -331 215 0
-334 331 215 0
-334 -331 -215 0
333 218 -216 0
333 -218 216 0
-333 218 216 0
-333 -218 -216 0
-335 334 0
-335 214 0
-335 213 -216 0
-335 -213 216 0
335 -334 213 216 -214 0
335 -334 -213 -216 -214 0
337 334 -213 0
337 -334 213 0
-337 334 213 0
-337 -334 -213 0
336 216 -214 0
336 -216 214 0
-336 216 214 0
-336 -216 -214 0
-338 337 0
-338 212 0
-338 211 -214 0
-338 -211 214 0
338 -337 211 214 -212 0
338 -337 -211 -214 -212 0
340 337 -211 0
340 -337 211 0
-340 337 211 0
-340 -337 -211 0
339 214 -212 0
339 -214 212 0
-339 214 212 0
-339 -214 -212 0
-341 340 0
-341 210 0
-341 209 -212 0
-341 -209 212 0
341 -340 209 212 -210 0
341 -340 -209 -212 -210 0
343 340 -209 0
343 -340 209 0
-343 340 209 0
-343 -340 -209 0
342 212 -210 0
342 -212 210 0
-342 212 210 0
-342 -212 -210 0
-344 343 0
-344 208 0
-344 207 -210 0
-344 -207 210 0
344 -343 207 210 -208 0
344 -343 -207 -210 -208 0
346 343 -207 0
346 -343 207 0
-346 343 207 0
-346 -343 -207 0
345 210 -208 0
345 -210 208 0
-345 210 208 0
-345 -210 -208 0
-347 346 0
-347 206 0
-347 205 -208 0
-347 -205 208 0
347 -346 205 208 -206 0
347 -346 -205 -208 -206 0
349 346 -205 0
349 -346 205 0
-349 346 205 0
-349 -346 -205 0
348 208 -206 0
348 -208 206 0
-348 208 206 0
-348 -208 -206 0
-350 349 0
-350 204 0
-350 203 -206 0
-350 -203 206 0
350 -349 203 206 -204 0
350 -349 -203 -206 -204 0
352 349 -203 0
352 -349 203 0
-352 349 203 0
-352 -349 -203 0
351 206 -204 0
351 -206 204 0
-351 206 204 0
-351 -206 -204 0
-353 352 0
-353 202 0
-353 201 -204 0
-353 -201 204 0
353 -352 201 204 -202 0
353 -352 -201 -204 -202 0
355 352 -201 0
355 -352 201 0
-355 352 201 0
-355 -352 -201 0
354 204 -202 0
354 -204 202 0
-354 204 202 0
-354 -204 -202 0
-356 355 0
-356 200 0
-356 199 -202 0
-356 -199 202 0
356 -355 199 202 -200 0
356 -355 -199 -202 -200 0
358 355 -199 0
358 -355 199 0
-358 355 199 0
-358 -355 -199 0
357 202 -200 0
357 -202 200 0
-357 202 200 0
-357 -202 -200 0
-359 358 0
-359 198 0
-359 197 -200 0
-359 -197 200 0
359 -358 197 200 -198 0
359 -358 -197 -200 -198 0
361 358 -197 0
361 -358 197 0
-361 358 197 0
-361 -358 -197 0
360 200 -198 0
360 -200 198 0
-360 200 198 0
-360 -200 -198 0
-362 361 0
-362 196 0
-362 195 -198 0
-362 -195 198 0
362 -361 195 198 -196 0
362 -361 -195 -198 -196 0
364 361 -195 0
364 -361 195 0
-364 361 195 0
-364 -361 -195 0
363 198 -196 0
363 -198 196 0
-363 198 196 0
-363 -198 -196 0
-365 364 0
-365 194 0
-365 193 -196 0
-365 -193 196 0
365 -364 193 196 -194 0
365 -364 -193 -196 -194 0
367 364 -193 0
367 -364 193 0
-367 364 193 0
-367 -364 -193 0
366 196 -194 0
366 -196 194 0
-366 196 194 0
-366 -196 -194 0
-368 367 0
-368 192 0
-368 191 -194 0
-368 -191 194 0
368 -367 191 194 -192 0
368 -367 -191 -194 -192 0
370 367 -191 0
370 -367 191 0
-370 367 191 0
-370 -367 -191 0
369 194 -192 0
369 -194 192 0
-369 194 192 0
-369 -194 -192 0
-371 370 0
-371 190 0
-371 189 -192 0
-371 -189 192 0
371 -370 189 192 -190 0
371 -370 -189 -192 -190 0
373 370 -189 0
373 -370 189 0
-373 370 189 0
-373 -370 -189 0
372 192 -190 0
372 -192 190 0
-372 192 190 0
-372 -192 -190 0
-374 373 0
-374 188 0
-374 187 -190 0
-374 -187 190 0
374 -373 187 190 -188 0
374 -373 -187 -190 -188 0
376 373 -187 0
376 -373 187 0
-376 373 187 0
-376 -373 -187 0
375 190 -188 0
375 -190 188 0
-375 190 188 0
-375 -190 -188 0
-377 376 0
-377 186 0
-377 185 -188 0
-377 -185 188 0
377 -376 185 188 -186 0
377 -376 -185 -188 -186 0
379 376 -185 0
379 -376 185 0
-379 376 185 0
-379 -376 -185 0
378 188 -186 0
378 -188 186 0
-378 188 186 0
-378 -188 -186 0
-380 379 0
-380 184 0
-380 183 -186 0
-380 -183 186 0
380 -379 183 186 -184 0
380 -379 -183 -186 -184 0
382 379 -183 0
382 -379 183 0
-382 379 183 0
-382 -379 -183 0
381 186 -184 0
381 -186 184 0
-381 186 184 0
-381 -186 -184 0
-383 382 0
-383 182 0
-383 181 -184 0
-383 -181 184 0
383 -382 181 184 -182 0
383 -382 -181 -184 -182 0
385 382 -181 0
385 -382 181 0
-385 382 181 0
-385 -382 -181 0
384 184 -182 0
384 -184 182 0
-384 184 182 0
-384 -184 -182 0
-386 385 0
-386 180 0
-386 179 -182 0
-386 -179 182 0
386 -385 179 182 -180 0
386 -385 -179 -182 -180 0
388 385 -179 0
388 -385 179 0
-388 385 179 0
-388 -385 -179 0
387 182 -180 0
387 -182 180 0
-387 182 180 0
-387 -182 -180 0
-389 388 0
-389 178 0
-389 177 -180 0
-389 -177 180 0
389 -388 177 180 -178 0
389 -388 -177 -180 -178 0
391 388 -177 0
391 -388 177 0
-391 388 177 0
-391 -388 -177 0
390 180 -178 0
390 -180 178 0
-390 180 178 0
-390 -180 -178 0
-392 391 0
-392 176 0
-392 175 -178 0
-392 -175 178 0
392 -391 175 178 -176 0
392 -391 -175 -178 -176 0
394 391 -175 0
394 -391 175 0
-394 391 175 0
-394 -391 -175 0
393 178 -176 0
393 -178 176 0
-393 178 176 0
-393 -178 -176 0
-395 394 0
-395 174 0
-395 173 -176 0
-395 -173 176 0
395 -394 173 176 -174 0
395 -394 -173 -176 -174 0
397 394 -173 0
397 -394 173 0
-397 394 173 0
-397 -394 -173 0
396 176 -174 0
396 -176 174 0
-396 176 174 0
-396 -176 -174 0
-398 397 0
-398 172 0
-398 171 -174 0
-398 -171 174 0
398 -397 171 174 -172 0
398 -397 -171 -174 -172 0
400 397 -171 0
400 -397 171 0
-400 397 171 0
-400 -397 -171 0
399 174 -172 0
399 -174 172 0
-399 174 172 0
-399 -174 -172 0
-401 400 0
-401 170 0
-401 169 -172 0
-401 -169 172 0
401 -400 169 172 -170 0
401 -400 -169 -172 -170 0
403 400 -169 0
403 -400 169 0
-403 400 169 0
-403 -400 -169 0
402 172 -170 0
402 -172 170 0
-402 172 170 0
-402 -172 -170 0
-404 403 0
-404 168 0
-404 167 -170 0
-404 -167 170 0
404 -403 167 170 -168 0
404 -403 -167 -170 -168 0
406 403 -167 0
406 -403 167 0
-406 403 167 0
-406 -403 -167 0
405 170 -168 0
405 -170 168 0
-405 170 168 0
-405 -170 -168 0
-407 406 0
-407 166 0
-407 165 -168 0
-407 -165 168 0
407 -406 165 168 -166 0
407 -406 -165 -168 -166 0
409 406 -165 0
409 -406 165 0
-409 406 165 0
-409 -406 -165 0
408 168 -166 0
408 -168 166 0
-408 168 166 0
-408 -168 -166 0
-410 409 0
-410 164 0
-410 163 -166 0
-410 -163 166 0
410 -409 163 166 -164 0
410 -409 -163 -166 -164 0
412 409 -163 0
412 -409 163 0
-412 409 163 0
-412 -409 -163 0
411 166 -164 0
411 -166 164 0
-411 166 164 0
-411 -166 -164 0
-413 412 0
-413 162 0
-413 161 -164 0
-413 -161 164 0
413 -412 161 164 -162 0
413 -412 -161 -164 -162 0
415 412 -161 0
415 -412 161 0
-415 412 161 0
-415 -412 -161 0
414 164 -162 0
414 -164 162 0
-414 164 162 0
-414 -164 -162 0
-416 415 0
-416 160 0
-416 159 -162 0
-416 -159 162 0
416 -415 159 162 -160 0
416 -415 -159 -162 -160 0
418 415 -159 0
418 -415 159 0
-418 415 159 0
-418 -415 -159 0
417 162 -160 0
417 -162 160 0
-417 162 160 0
-417 -162 -160 0
-419 418 0
-419 158 0
-419 157 -160 0
-419 -157 160 0
419 -418 157 160 -158 0
419 -418 -157 -160 -158 0
421 418 -157 0
421 -418 157 0
-421 418 157 0
-421 -418 -157 0
420 160 -158 0
420 -160 158 0
-420 160 158 0
-420 -160 -158 0
-422 421 0
-422 156 0
-422 155 -158 0
-422 -155 158 0
422 -421 155 158 -156 0
422 -421 -155 -158 -156 0
424 421 -155 0
424 -421 155 0
-424 421 155 0
-424 -421 -155 0
423 158 -156 0
423 -158 156 0
-423 158 156 0
-423 -158 -156 0
-425 424 0
-425 154 0
-425 153 -156 0
-425 -153 156 0
425 -424 153 156 -154 0
425 -424 -153 -156 -154 0
427 424 -153 0
427 -424 153 0
-427 424 153 0
-427 -424 -153 0
426 156 -154 0
426 -156 154 0
-426 156 154 0
-426 -156 -154 0
-428 427 0
-428 152 0
-428 151 -154 0
-428 -151 154 0
428 -427 151 154 -152 0
428 -427 -151 -154 -152 0
430 427 -151 0
430 -427 151 0
-430 427 151 0
-430 -427 -151 0
429 154 -152 0
429 -154 152 0
-429 154 152 0
-429 -154 -152 0
-431 430 0
-431 150 0
-431 149 -152 0
-431 -149 152 0
431 -430 149 152 -150 0
431 -430 -149 -152 -150 0
433 430 -149 0
433 -430 149 0
-433 430 149 0
-433 -430 -149 0
432 152 -150 0
432 -152 150 0
-432 152 150 0
-432 -152 -150 0
-434 433 0
-434 148 0
-434 147 -150 0
-434 -147 150 0
434 -433 147 150 -148 0
434 -433 -147 -150 -148 0
436 433 -147 0
436 -433 147 0
-436 433 147 0
-436 -433 -147 0
435 150 -148 0
435 -150 148 0
-435 150 148 0
-435 -150 -148 0
-437 436 0
-437 146 0
-437 145 -148 0
-437 -145 148 0
437 -436 145 148 -146 0
437 -436 -145 -148 -146 0
439 436 -145 0
439 -436 145 0
-439 436 145 0
-439 -436 -145 0
438 148 -146 0
438 -148 146 0
-438 148 146 0
-438 -148 -146 0
-440 439 0
-440 144 0
-440 143 -146 0
-440 -143 146 0
440 -439 143 146 -144 0
440 -439 -143 -146 -144 0
442 439 -143 0
442 -439 143 0
-442 439 143 0
-442 -439 -143 0
441 146 -144 0
441 -146 144 0
-441 146 144 0
-441 -146 -144 0
-443 442 0
-443 142 0
-443 141 -144 0
-443 -141 144 0
443 -442 141 144 -142 0
443 -442 -141 -144 -142 0
445 442 -141 0
445 -442 141 0
-445 442 141 0
-445 -442 -141 0
444 144 -142 0
444 -144 142 0
-444 144 142 0
-444 -144 -142 0
-446 445 0
-446 140 0
-446 139 -142 0
-446 -139 142 0
446 -445 139 142 -140 0
446 -445 -139 -142 -140 0
448 445 -139 0
448 -445 139 0
-448 445 139 0
-448 -445 -139 0
447 142 -140 0
447 -142 140 0
-447 142 140 0
-447 -142 -140 0
-449 448 0
-449 138 0
-449 137 -140 0
-449 -137 140 0
449 -448 137 140 -138 0
449 -448 -137 -140 -138 0
451 448 -137 0
451 -448 137 0
-451 448 137 0
-451 -448 -137 0
450 140 -138 0
450 -140 138 0
-450 140 138 0
-450 -140 -138 0
-452 451 0
-452 136 0
-452 135 -138 0
-452 -135 138 0
452 -451 135 138 -136 0
452 -451 -135 -138 -136 0
454 451 -135 0
454 -451 135 0
-454 451 135 0
-454 -451 -135 0
453 138 -136 0
453 -138 136 0
-453 138 136 0
-453 -138 -136 0
-455 454 0
-455 134 0
-455 133 -136 0
-455 -133 136 0
455 -454 133 136 -134 0
455 -454 -133 -136 -134 0
457 454 -133 0
457 -454 133 0
-457 454 133 0
-457 -454 -133 0
456 136 -134 0
456 -136 134 0
-456 136 134 0
-456 -136 -134 0
-458 457 0
-458 132 0
-458 131 -134 0
-458 -131 134 0
458 -457 131 134 -132 0
458 -457 -131 -134 -132 0
460 457 -131 0
460 -457 131 0
-460 457 131 0
-460 -457 -131 0
459 134 -132 0
459 -134 132 0
-459 134 132 0
-459 -134 -132 0
-461 460 0
-461 130 0
-461 129 -132 0
-461 -129 132 0
461 -460 129 132 -130 0
461 -460 -129 -132 -130 0
463 460 -129 0
463 -460 129 0
-463 460 129 0
-463 -460 -129 0
462 132 -130 0
462 -132 130 0
-462 132 130 0
-462 -132 -130 0
-464 463 0
-464 128 0
-464 127 -130 0
-464 -127 130 0
464 -463 127 130 -128 0
464 -463 -127 -130 -128 0
466 463 -127 0
466 -463 127 0
-466 463 127 0
-466 -463 -127 0
465 130 -128 0
465 -130 128 0
-465 130 128 0
-465 -130 -128 0
-467 466 0
-467 126 0
-467 125 -128 0
-467 -125 128 0
467 -466 125 128 -126 0
467 -466 -125 -128 -126 0
469 466 -125 0
469 -466 125 0
-469 466 125 0
-469 -466 -125 0
468 128 -126 0
468 -128 126 0
-468 128 126 0
-468 -128 -126 0
-470 469 0
-470 124 0
-470 123 -126 0
-470 -123 126 0
470 -469 123 126 -124 0
470 -469 -123 -126 -124 0
472 469 -123 0
472 -469 123 0
-472 469 123 0
-472 -469 -123 0
471 126 -124 0
471 -126 124 0
-471 126 124 0
-471 -126 -124 0
-473 472 0
-473 122 0
-473 121 -124 0
-473 -121 124 0
473 -472 121 124 -122 0
473 -472 -121 -124 -122 0
475 472 -121 0
475 -472 121 0
-475 472 121 0
-475 -472 -121 0
474 124 -122 0
474 -124 122 0
-474 124 122 0
-474 -124 -122 0
-476 475 0
-476 120 0
-476 119 -122 0
-476 -119 122 0
476 -475 119 122 -120 0
476 -475 -119 -122 -120 0
478 475 -119 0
478 -475 119 0
-478 475 119 0
-478 -475 -119 0
477 122 -120 0
477 -122 120 0
-477 122 120 0
-477 -122 -120 0
-479 478 0
-479 118 0
-479 117 -120 0
-479 -117 120 0
479 -478 117 120 -118 0
479 -478 -117 -120 -118 0
481 478 -117 0
481 -478 117 0
-481 478 117 0
-481 -478 -117 0
480 120 -118 0
480 -120 118 0
-480 120 118 0
-480 -120 -118 0
-482 481 0
-482 116 0
-482 115 -118 0
-482 -115 118 0
482 -481 115 118 -116 0
482 -481 -115 -118 -116 0
484 481 -115 0
484 -481 115 0
-484 481 115 0
-484 -481 -115 0
483 118 -116 0
483 -118 116 0
-483 118 116 0
-483 -118 -116 0
-485 484 0
-485 114 0
-485 113 -116 0
-485 -113 116 0
485 -484 113 116 -114 0
485 -484 -113 -116 -114 0
487 484 -113 0
487 -484 113 0
-487 484 113 0
-487 -484 -113 0
486 116 -114 0
486 -116 114 0
-486 116 114 0
-486 -116 -114 0
-488 487 0
-488 112 0
-488 111 -114 0
-488 -111 114 0
488 -487 111 114 -112 0
488 -487 -111 -114 -112 0
490 487 -111 0
490 -487 111 0
-490 487 111 0
-490 -487 -111 0
489 114 -112 0
489 -114 112 0
-489 114 112 0
-489 -114 -112 0
-491 490 0
-491 110 0
-491 109 -112 0
-491 -109 112 0
491 -490 109 112 -110 0
491 -490 -109 -112 -110 0
493 490 -109 0
493 -490 109 0
-493 490 109 0
-493 -490 -109 0
492 112 -110 0
492 -112 110 0
-492 112 110 0
-492 -112 -110 0
-494 493 0
-494 108 0
-494 107 -110 0
-494 -107 110 0
494 -493 107 110 -108 0
494 -493 -107 -110 -108 0
496 493 -107 0
496 -493 107 0
-496 493 107 0
-496 -493 -107 0
495 110 -108 0
495 -110 108 0
-495 110 108 0
-495 -110 -108 0
-497 496 0
-497 106 0
-497 105 -108 0
-497 -105 108 0
497 -496 105 108 -106 0
497 -496 -105 -108 -106 0
499 496 -105 0
499 -496 105 0
-499 496 105 0
-499 -496 -105 0
498 108 -106 0
498 -108 106 0
-498 108 106 0
-498 -108 -106 0
-500 499 0
-500 104 0
-500 103 -106 0
-500 -103 106 0
500 -499 103 106 -104 0
500 -499 -103 -106 -104 0
502 499 -103 0
502 -499 103 0
-502 499 103 0
-502 -499 -103 0
501 106 -104 0
501 -106 104 0
-501 106 104 0
-501 -106 -104 0
-503 502 0
-503 102 0
-503 101 -104 0
-503 -101 104 0
503 -502 101 104 -102 0
503 -502 -101 -104 -102 0
505 502 -101 0
505 -502 101 0
-505 502 101 0
-505 -502 -101 0
504 104 -102 0
504 -104 102 0
-504 104 102 0
-504 -104 -102 0
-506 505 0
-506 100 0
-506 99 -102 0
-506 -99 102 0
506 -505 99 102 -100 0
506 -505 -99 -102 -100 0
508 505 -99 0
508 -505 99 0
-508 505 99 0
-508 -505 -99 0
507 102 -100 0
507 -102 100 0
-507 102 100 0
-507 -102 -100 0
-509 508 0
-509 98 0
-509 97 -100 0
-509 -97 100 0
509 -508 97 100 -98 0
509 -508 -97 -100 -98 0
511 508 -97 0
511 -508 97 0
-511 508 97 0
-511 -508 -97 0
510 100 -98 0
510 -100 98 0
-510 100 98 0
-510 -100 -98 0
-512 511 0
-512 96 0
-512 95 -98 0
-512 -95 98 0
512 -511 95 98 -96 0
512 -511 -95 -98 -96 0
514 511 -95 0
514 -511 95 0
-514 511 95 0
-514 -511 -95 0
513 98 -96 0
513 -98 96 0
-513 98 96 0
-513 -98 -96 0
-515 514 0
-515 94 0
-515 93 -96 0
-515 -93 96 0
515 -514 93 96 -94 0
515 -514 -93 -96 -94 0
517 514 -93 0
517 -514 93 0
-517 514 93 0
-517 -514 -93 0
516 96 -94 0
516 -96 94 0
-516 96 94 0
-516 -96 -94 0
-518 517 0
-518 92 0
-518 91 -94 0
-518 -91 94 0
518 -517 91 94 -92 0
518 -517 -91 -94 -92 0
520 517 -91 0
520 -517 91 0
-520 517 91 0
-520 -517 -91 0
519 94 -92 0
519 -94 92 0
-519 94 92 0
-519 -94 -92 0
-521 520 0
-521 90 0
-521 89 -92 0
-521 -89 92 0
521 -520 89 92 -90 0
521 -520 -89 -92 -90 0
523 520 -89 0
523 -520 89 0
-523 520 89 0
-523 -520 -89 0
522 92 -90 0
522 -92 90 0
-522 92 90 0
-522 -92 -90 0
-524 523 0
-524 88 0
-524 87 -90 0
-524 -87 90 0
524 -523 87 90 -88 0
524 -523 -87 -90 -88 0
526 523 -87 0
526 -523 87 0
-526 523 87 0
-526 -523 -87 0
525 90 -88 0
525 -90 88 0
-525 90 88 0
-525 -90 -88 0
-527 526 0
-527 86 0
-527 85 -88 0
-527 -85 88 0
527 -526 85 88 -86 0
527 -526 -85 -88 -86 0
529 526 -85 0
529 -526 85 0
-529 526 85 0
-529 -526 -85 0
528 88 -86 0
528 -88 86 0
-528 88 86 0
-528 -88 -86 0
-530 529 0
-530 84 0
-530 83 -86 0
-530 -83 86 0
530 -529 83 86 -84 0
530 -529 -83 -86 -84 0
532 529 -83 0
532 -529 83 0
-532 529 83 0
-532 -529 -83 0
531 86 -84 0
531 -86 84 0
-531 86 84 0
-531 -86 -84 0
-533 532 0
-533 82 0
-533 81 -84 0
-533 -81 84 0
533 -532 81 84 -82 0
533 -532 -81 -84 -82 0
535 532 -81 0
535 -532 81 0
-535 532 81 0
-535 -532 -81 0
534 84 -82 0
534 -84 82 0
-534 84 82 0
-534 -84 -82 0
-536 535 0
-536 80 0
-536 79 -82 0
-536 -79 82 0
536 -535 79 82 -80 0
536 -535 -79 -82 -80 0
538 535 -79 0
538 -535 79 0
-538 535 79 0
-538 -535 -79 0
537 82 -80 0
537 -82 80 0
-537 82 80 0
-537 -82 -80 0
-539 538 0
-539 78 0
-539 77 -80 0
-539 -77 80 0
539 -538 77 80 -78 0
539 -538 -77 -80 -78 0
541 538 -77 0
541 -538 77 0
-541 538 77 0
-541 -538 -77 0
540 80 -78 0
540 -80 78 0
-540 80 78 0
-540 -80 -78 0
-542 541 0
-542 76 0
-542 75 -78 0
-542 -75 78 0
542 -541 75 78 -76 0
542 -541 -75 -78 -76 0
544 541 -75 0
544 -541 75 0
-544 541 75 0
-544 -541 -75 0
543 78 -76 0
543 -78 76 0
-543 78 76 0
-543 -78 -76 0
-545 544 0
-545 74 0
-545 73 -76 0
-545 -73 76 0
545 -544 73 76 -74 0
545 -544 -73 -76 -74 0
547 544 -73 0
547 -544 73 0
-547 544 73 0
-547 -544 -73 0
546 76 -74 0
546 -76 74 0
-546 76 74 0
-546 -76 -74 0
-548 547 0
-548 72 0
-548 71 -74 0
-548 -71 74 0
548 -547 71 74 -72 0
548 -547 -71 -74 -72 0
550 547 -71 0
550 -547 71 0
-550 547 71 0
-550 -547 -71 0
549 74 -72 0
549 -74 72 0
-549 74 72 0
-549 -74 -72 0
-551 550 0
-551 70 0
-551 69 -72 0
-551 -69 72 0
551 -550 69 72 -70 0
551 -550 -69 -72 -70 0
553 550 -69 0
553 -550 69 0
-553 550 69 0
-553 -550 -69 0
552 72 -70 0
552 -72 70 0
-552 72 70 0
-552 -72 -70 0
-554 553 0
-554 68 0
-554 67 -70 0
-554 -67 70 0
554 -553 67 70 -68 0
554 -553 -67 -70 -68 0
556 553 -67 0
556 -553 67 0
-556 553 67 0
-556 -553 -67 0
555 70 -68 0
555 -70 68 0
-555 70 68 0
-555 -70 -68 0
-557 556 0
-557 66 0
-557 65 -68 0
-557 -65 68 0
557 -556 65 68 -66 0
557 -556 -65 -68 -66 0
559 556 -65 0
559 -556 65 0
-559 556 65 0
-559 -556 -65 0
558 68 -66 0
558 -68 66 0
-558 68 66 0
-558 -68 -66 0
-560 559 0
-560 64 0
-560 63 -66 0
-560 -63 66 0
560 -559 63 66 -64 0
560 -559 -63 -66 -64 0
562 559 -63 0
562 -559 63 0
-562 559 63 0
-562 -559 -63 0
561 66 -64 0
561 -66 64 0
-561 66 64 0
-561 -66 -64 0
-563 562 0
-563 62 0
-563 61 -64 0
-563 -61 64 0
563 -562 61 64 -62 0
563 -562 -61 -64 -62 0
565 562 -61 0
565 -562 61 0
-565 562 61 0
-565 -562 -61 0
564 64 -62 0
564 -64 62 0
-564 64 62 0
-564 -64 -62 0
-566 565 0
-566 60 0
-566 59 -62 0
-566 -59 62 0
566 -565 59 62 -60 0
566 -565 -59 -62 -60 0
568 565 -59 0
568 -565 59 0
-568 565 59 0
-568 -565 -59 0
567 62 -60 0
567 -62 60 0
-567 62 60 0
-567 -62 -60 0
-569 568 0
-569 58 0
-569 57 -60 0
-569 -57 60 0
569 -568 57 60 -58 0
569 -568 -57 -60 -58 0
571 568 -57 0
571 -568 57 0
-571 568 57 0
-571 -568 -57 0
570 60 -58 0
570 -60 58 0
-570 60 58 0
-570 -60 -58 0
-572 571 0
-572 56 0
-572 55 -58 0
-572 -55 58 0
572 -571 55 58 -56 0
572 -571 -55 -58 -56 0
574 571 -55 0
574 -571 55 0
-574 571 55 0
-574 -571 -55 0
573 58 -56 0
573 -58 56 0
-573 58 56 0
-573 -58 -56 0
-575 574 0
-575 54 0
-575 53 -56 0
-575 -53 56 0
575 -574 53 56 -54 0
575 -574 -53 -56 -54 0
577 574 -53 0
577 -574 53 0
-577 574 53 0
-577 -574 -53 0
576 56 -54 0
576 -56 54 0
-576 56 54 0
-576 -56 -54 0
-578 577 0
-578 52 0
-578 51 -54 0
-578 -51 54 0
578 -577 51 54 -52 0
578 -577 -51 -54 -52 0
580 577 -51 0
580 -577 51 0
-580 577 51 0
-580 -577 -51 0
579 54 -52 0
579 -54 52 0
-579 54 52 0
-579 -54 -52 0
-581 580 0
-581 50 0
-581 49 -52 0
-581 -49 52 0
581 -580 49 52 -50 0
581 -580 -49 -52 -50 0
583 580 -49 0
583 -580 49 0
-583 580 49 0
-583 -580 -49 0
582 52 -50 0
582 -52 50 0
-582 52 50 0
-582 -52 -50 0
-584 583 0
-584 48 0
-584 47 -50 0
-584 -47 50 0
584 -583 47 50 -48 0
584 -583 -47 -50 -48 0
586 583 -47 0
586 -583 47 0
-586 583 47 0
-586 -583 -47 0
585 50 -48 0
585 -50 48 0
-585 50 48 0
-585 -50 -48 0
-587 586 0
-587 46 0
-587 45 -48 0
-587 -45 48 0
587 -586 45 48 -46 0
587 -586 -45 -48 -46 0
589 586 -45 0
589 -586 45 0
-589 586 45 0
-589 -586 -45 0
588 48 -46 0
588 -48 46 0
-588 48 46 0
-588 -48 -46 0
-590 589 0
-590 44 0
-590 43 -46 0
-590 -43 46 0
590 -589 43 46 -44 0
590 -589 -43 -46 -44 0
592 589 -43 0
592 -589 43 0
-592 589 43 0
-592 -589 -43 0
591 46 -44 0
591 -46 44 0
-591 46 44 0
-591 -46 -44 0
-593 592 0
-593 42 0
-593 41 -44 0
-593 -41 44 0
593 -592 41 44 -42 0
593 -592 -41 -44 -42 0
595 592 -41 0
595 -592 41 0
-595 592 41 0
-595 -592 -41 0
594 44 -42 0
594 -44 42 0
-594 44 42 0
-594 -44 -42 0
-596 595 0
-596 40 0
-596 39 -42 0
-596 -39 42 0
596 -595 39 42 -40 0
596 -595 -39 -42 -40 0
598 595 -39 0
598 -595 39 0
-598 595 39 0
-598 -595 -39 0
597 42 -40 0
597 -42 40 0
-597 42 40 0
-597 -42 -40 0
-599 598 0
-599 38 0
-599 37 -40 0
-599 -37 40 0
599 -598 37 40 -38 0
599 -598 -37 -40 -38 0
601 598 -37 0
601 -598 37 0
-601 598 37 0
-601 -598 -37 0
600 40 -38 0
600 -40 38 0
-600 40 38 0
-600 -40 -38 0
-602 601 0
-602 36 0
-602 35 -38 0
-602 -35 38 0
602 -601 35 38 -36 0
602 -601 -35 -38 -36 0
604 601 -35 0
604 -601 35 0
-604 601 35 0
-604 -601 -35 0
603 38 -36 0
603 -38 36 0
-603 38 36 0
-603 -38 -36 0
-605 604 0
-605 34 0
-605 33 -36 0
-605 -33 36 0
605 -604 33 36 -34 0
605 -604 -33 -36 -34 0
607 604 -33 0
607 -604 33 0
-607 604 33 0
-607 -604 -33 0
606 36 -34 0
606 -36 34 0
-606 36 34 0
-606 -36 -34 0
-608 607 0
-608 32 0
-608 31 -34 0
-608 -31 34 0
608 -607 31 34 -32 0
608 -607 -31 -34 -32 0
610 607 -31 0
610 -607 31 0
-610 607 31 0
-610 -607 -31 0
609 34 -32 0
609 -34 32 0
-609 34 32 0
-609 -34 -32 0
-611 610 0
-611 30 0
-611 29 -32 0
-611 -29 32 0
611 -610 29 32 -30 0
611 -610 -29 -32 -30 0
613 610 -29 0
613 -610 29 0
-613 610 29 0
-613 -610 -29 0
612 32 -30 0
612 -32 30 0
-612 32 30 0
-612 -32 -30 0
-614 613 0
-614 28 0
-614 27 -30 0
-614 -27 30 0
614 -613 27 30 -28 0
614 -613 -27 -30 -28 0
616 613 -27 0
616 -613 27 0
-616 613 27 0
-616 -613 -27 0
615 30 -28 0
615 -30 28 0
-615 30 28 0
-615 -30 -28 0
-617 616 0
-617 26 0
-617 25 -28 0
-617 -25 28 0
617 -616 25 28 -26 0
617 -616 -25 -28 -26 0
619 616 -25 0
619 -616 25 0
-619 616 25 0
-619 -616 -25 0
618 28 -26 0
618 -28 26 0
-618 28 26 0
-618 -28 -26 0
-620 619 0
-620 24 0
-620 23 -26 0
-620 -23 26 0
620 -619 23 26 -24 0
620 -619 -23 -26 -24 0
622 619 -23 0
622 -619 23 0
-622 619 23 0
-622 -619 -23 0
621 26 -24 0
621 -26 24 0
-621 26 24 0
-621 -26 -24 0
-623 622 0
-623 22 0
-623 21 -24 0
-623 -21 24 0
623 -622 21 24 -22 0
623 -622 -21 -24 -22 0
625 622 -21 0
625 -622 21 0
-625 622 21 0
-625 -622 -21 0
624 24 -22 0
624 -24 22 0
-624 24 22 0
-624 -24 -22 0
-626 625 0
-626 20 0
-626 19 -22 0
-626 -19 22 0
626 -625 19 22 -20 0
626 -625 -19 -22 -20 0
628 625 -19 0
628 -625 19 0
-628 625 19 0
-628 -625 -19 0
627 22 -20 0
627 -22 20 0
-627 22 20 0
-627 -22 -20 0
-629 628 0
-629 18 0
-629 17 -20 0
-629 -17 20 0
629 -628 17 20 -18 0
629 -628 -17 -20 -18 0
631 628 -17 0
631 -628 17 0
-631 628 17 0
-631 -628 -17 0
630 20 -18 0
630 -20 18 0
-630 20 18 0
-630 -20 -18 0
-632 631 0
-632 16 0
-632 15 -18 0
-632 -15 18 0
632 -631 15 18 -16 0
632 -631 -15 -18 -16 0
634 631 -15 0
634 -631 15 0
-634 631 15 0
-634 -631 -15 0
633 18 -16 0
633 -18 16 0
-633 18 16 0
-633 -18 -16 0
-635 634 0
-635 14 0
-635 13 -16 0
-635 -13 16 0
635 -634 13 16 -14 0
635 -634 -13 -16 -14 0
637 634 -13 0
637 -634 13 0
-637 634 13 0
-637 -634 -13 0
636 16 -14 0
636 -16 14 0
-636 16 14 0
-636 -16 -14 0
-638 637 0
-638 12 0
-638 11 -14 0
-638 -11 14 0
638 -637 11 14 -12 0
638 -637 -11 -14 -12 0
640 637 -11 0
640 -637 11 0
-640 637 11 0
-640 -637 -11 0
639 14 -12 0
639 -14 12 0
-639 14 12 0
-639 -14 -12 0
-641 640 0
-641 10 0
-641 9 -12 0
-641 -9 12 0
641 -640 9 12 -10 0
641 -640 -9 -12 -10 0
643 640 -9 0
643 -640 9 0
-643 640 9 0
-643 -640 -9 0
642 12 -10 0
642 -12 10 0
-642 12 10 0
-642 -12 -10 0
-644 643 0
-644 8 0
-644 7 -10 0
-644 -7 10 0
644 -643 7 10 -8 0
644 -643 -7 -10 -8 0
646 643 -7 0
646 -643 7 0
-646 643 7 0
-646 -643 -7 0
645 10 -8 0
645 -10 8 0
-645 10 8 0
-645 -10 -8 0
-647 646 0
-647 6 0
-647 5 -8 0
-647 -5 8 0
647 -646 5 8 -6 0
647 -646 -5 -8 -6 0
649 646 -5 0
649 -646 5 0
-649 646 5 0
-649 -646 -5 0
648 8 -6 0
648 -8 6 0
-648 8 6 0
-648 -8 -6 0
-650 649 0
-650 4 0
-650 3 -6 0
-650 -3 6 0
650 -649 3 6 -4 0
650 -649 -3 -6 -4 0
652 649 -3 0
652 -649 3 0
-652 649 3 0
-652 -649 -3 0
651 6 -4 0
651 -6 4 0
-651 6 4 0
-651 -6 -4 0
-653 652 0
-653 2 0
-653 1 -4 0
-653 -1 4 0
653 -652 1 4 -2 0
653 -652 -1 -4 -2 0
655 652 -1 0
655 -652 1 0
-655 652 1 0
-655 -652 -1 0
654 4 -2 0
654 -4 2 0
-654 4 2 0
-654 -4 -2 0
-655 0
-652 0
-654 0
-649 0
-651 0
-646 0
-648 0
-643 0
-645 0
-640 0
-642 0
-637 0
-639 0
-634 0
-636 0
-631 0
-633 0
-628 0
-630 0
-625 0
-627 0
-622 0
-624 0
-619 0
-621 0
-616 0
-618 0
-613 0
-615 0
-610 0
-612 0
-607 0
-609 0
-604 0
-606 0
-601 0
-603 0
-598 0
-600 0
-595 0
-597 0
-592 0
-594 0
-589 0
-591 0
-586 0
-588 0
-583 0
-585 0
-580 0
-582 0
-577 0
-579 0
-574 0
-576 0
-571 0
-573 0
-568 0
-570 0
-565 0
-567 0
-562 0
-564 0
-559 0
-561 0
-556 0
-558 0
-553 0
-555 0
-550 0
-552 0
-547 0
-549 0
-544 0
-546 0
-541 0
-543 0
-538 0
-540 0
-535 0
-537 0
-532 0
-534 0
-529 0
-531 0
-526 0
-528 0
-523 0
-525 0
-520 0
-522 0
-517 0
-519 0
-514 0
-516 0
-511 0
-513 0
-508 0
-510 0
-505 0
-507 0
-502 0
-504 0
-499 0
-501 0
-496 0
-498 0
-493 0
-495 0
-490 0
-492 0
-487 0
-489 0
-484 0
-486 0
-481 0
-483 0
-478 0
-480 0
-475 0
-477 0
-472 0
-474 0
-469 0
-471 0
-466 0
-468 0
-463 0
-465 0
-460 0
-462 0
-457 0
-459 0
-454 0
-456 0
-451 0
-453 0
-448 0
-450 0
-445 0
-447 0
-442 0
-444 0
-439 0
-441 0
-436 0
-438 0
-433 0
-435 0
-430 0
-432 0
-427 0
-429 0
-424 0
-426 0
-421 0
-423 0
-418 0
-420 0
-415 0
-417 0
-412 0
-414 0
-409 0
-411 0
-406 0
-408 0
-403 0
-405 0
-400 0
-402 0
-397 0
-399 0
-394 0
-396 0
-391 0
-393 0
-388 0
-390 0
-385 0
-387 0
-382 0
-384 0
-379 0
-381 0
-376 0
-378 0
-373 0
-375 0
-370 0
-372 0
-367 0
-369 0
-364 0
-366 0
-361 0
-363 0
-358 0
-360 0
-355 0
-357 0
-352 0
-354 0
-349 0
-351 0
-346 0
-348 0
-343 0
-345 0
-340 0
-342 0
-337 0
-339 0
-334 0
-336 0
-331 0
-333 0
-328 0
-330 0
-325 0
-327 0
-322 0
-324 0
-319 0
-321 0
-316 0
-318 0
-313 0
-315 0
-310 0
-312 0
-307 0
-309 0
-304 0
-306 0
-301 0
-303 0
-298 0
-300 0
-295 0
-297 0
-292 0
-294 0
-289 0
-291 0
-286 0
-288 0
-283 0
-285 0
-280 0
-282 0
-277 0
-279 0
-274 0
-276 0
-271 0
-273 0
-264 0
-270 0
